language Essence 1.3

letting blksize_delta be
        function(1 --> 8, 2 --> 8, 3 --> 9, 4 --> 8, 5 --> 8, 6 --> 8, 7 --> 10, 8 --> 9, 9 --> 8, 10 --> 10, 11 --> 8,
                 12 --> 8, 13 --> 8, 14 --> 8, 15 --> 9, 16 --> 8, 17 --> 9, 18 --> 9, 19 --> 8, 20 --> 8, 21 --> 8,
                 22 --> 8, 23 --> 8, 24 --> 8)
letting maxcars be
        function(1 --> 8, 2 --> 8, 3 --> 8, 4 --> 8, 5 --> 8, 6 --> 8, 7 --> 8, 8 --> 10, 9 --> 8, 10 --> 10, 11 --> 8,
                 12 --> 8, 13 --> 8, 14 --> 10, 15 --> 8, 16 --> 8, 17 --> 8, 18 --> 8, 19 --> 9, 20 --> 8, 21 --> 8,
                 22 --> 8, 23 --> 8, 24 --> 8)
letting n_cars be 216
letting n_classes be 36
letting n_options be 24
letting quantity be
        function(1 --> 6, 2 --> 6, 3 --> 6, 4 --> 6, 5 --> 6, 6 --> 6, 7 --> 6, 8 --> 6, 9 --> 6, 10 --> 6, 11 --> 6,
                 12 --> 6, 13 --> 6, 14 --> 6, 15 --> 6, 16 --> 6, 17 --> 6, 18 --> 6, 19 --> 6, 20 --> 6, 21 --> 6,
                 22 --> 6, 23 --> 6, 24 --> 6, 25 --> 6, 26 --> 6, 27 --> 6, 28 --> 6, 29 --> 6, 30 --> 6, 31 --> 6,
                 32 --> 6, 33 --> 6, 34 --> 6, 35 --> 6, 36 --> 6)
letting usage be
        relation((1, 4), (2, 2), (2, 3), (2, 17), (3, 24), (4, 1), (4, 12), (4, 21), (5, 1), (5, 20), (6, 7), (7, 15),
                 (8, 9), (8, 15), (8, 17), (9, 16), (10, 8), (10, 14), (11, 3), (12, 1), (12, 4), (12, 9), (13, 11),
                 (13, 16), (14, 3), (14, 8), (14, 16), (14, 21), (14, 22), (15, 13), (15, 17), (16, 3), (17, 8),
                 (17, 11), (17, 12), (17, 21), (18, 10), (19, 3), (19, 4), (19, 22), (20, 9), (20, 12), (20, 14),
                 (20, 18), (21, 11), (21, 24), (22, 20), (22, 22), (23, 16), (23, 20), (24, 2), (24, 6), (24, 14),
                 (25, 6), (25, 13), (26, 9), (26, 13), (26, 14), (26, 20), (27, 12), (27, 15), (27, 23), (28, 13),
                 (28, 14), (29, 3), (29, 24), (30, 3), (31, 24), (32, 1), (32, 2), (32, 8), (33, 1), (33, 8), (33, 15),
                 (33, 18), (34, 1), (34, 4), (34, 5), (34, 7), (34, 12), (34, 15), (35, 3), (35, 13), (35, 17),
                 (35, 20), (36, 1), (36, 11), (36, 19))
$ Visualisation for usage
$  1  4
$  2  2
$  2  3
$  2 17
$  3 24
$  4  1
$  4 12
$  4 21
$  5  1
$  5 20
$  6  7
$  7 15
$  8  9
$  8 15
$  8 17
$  9 16
$ 10  8
$ 10 14
$ 11  3
$ 12  1
$ 12  4
$ 12  9
$ 13 11
$ 13 16
$ 14  3
$ 14  8
$ 14 16
$ 14 21
$ 14 22
$ 15 13
$ 15 17
$ 16  3
$ 17  8
$ 17 11
$ 17 12
$ 17 21
$ 18 10
$ 19  3
$ 19  4
$ 19 22
$ 20  9
$ 20 12
$ 20 14
$ 20 18
$ 21 11
$ 21 24
$ 22 20
$ 22 22
$ 23 16
$ 23 20
$ 24  2
$ 24  6
$ 24 14
$ 25  6
$ 25 13
$ 26  9
$ 26 13
$ 26 14
$ 26 20
$ 27 12
$ 27 15
$ 27 23
$ 28 13
$ 28 14
$ 29  3
$ 29 24
$ 30  3
$ 31 24
$ 32  1
$ 32  2
$ 32  8
$ 33  1
$ 33  8
$ 33 15
$ 33 18
$ 34  1
$ 34  4
$ 34  5
$ 34  7
$ 34 12
$ 34 15
$ 35  3
$ 35 13
$ 35 17
$ 35 20
$ 36  1
$ 36 11
$ 36 19

